140
0 139 51 28 111 128 31 11 70 114 
59 33 116 45 122 100 129 8 107 61 
101 118 5 27 124 39 127 109 78 119 
95 81 54 91 74 82 102 48 136 97 
94 63 120 117 80 90 50 137 30 77 
112 22 14 86 110 113 12 21 131 10 
25 130 46 53 17 40 83 89 18 62 
15 64 34 125 92 56 52 134 106 88 
99 138 75 36 32 133 84 37 71 43 
79 20 26 132 47 55 35 135 4 126 
103 65 98 60 7 121 9 66 57 44 
3 23 108 19 24 115 2 1 93 73 
41 68 69 76 104 6 13 29 67 87 
42 123 105 85 38 58 72 96 49 16 
